sat
(:max-memory         18.42
 :memory             18.42
 :nlsat-arith-var    3
 :nlsat-atoms        8
 :nlsat-bool-var     1
 :nlsat-clauses      7
 :nlsat-conflicts    1
 :nlsat-propagations 13
 :nlsat-stages       6
 :num-allocs         41085
 :rlimit-count       2186
 :time               0.00
 :total-time         0.01)
